Comps = {frontend0, frontend1, frontend2, backend0, backend1, database0, database1};
mustComps = {frontend0, frontend1, frontend2};
Flavs = {tiny, medium, large};
Nodes = {n1, n2, n3};
CRes = {CPU, RAM, storage, bwIn, bwOut};
NRes = {ssl, fwall, encr, avail, latency};
Flav = [{medium, large}, {medium, large}, {medium, large}, {tiny, medium, large}, {tiny, medium, large}, {large}, {large}];
Uses = [{backend1}, {backend1}, {backend0}, {backend1}, {backend1}, {backend0}, {}, {}, {database0}, {database1}, {database0}, {database1}, {}, {}];
MAX_BOUND = 1000000;

worstBounds = [0, 0, 0, 0, 0, 0, 0, 0, 0, MAX_BOUND];
bestBounds = [MAX_BOUND - i | i in worstBounds];

comReq = array2d(CompFlavs, Res, [
  4, 479, 385, 261, 339, 0, 1, 1, 96, MAX_BOUND,
  2, 338, 270, 881, 577, 1, 0, 0, 97, MAX_BOUND,
  2, 490, 440, 385, 229, 1, 1, 0, 97, MAX_BOUND,
  2, 214, 416, 861, 758, 0, 0, 1, 97, MAX_BOUND,
  2, 441, 359, 436, 959, 0, 0, 1, 97, MAX_BOUND,
  2, 289, 425, 206, 732, 1, 0, 1, 95, MAX_BOUND,
  2, 421, 257, 595, 469, 1, 1, 1, 97, MAX_BOUND,
  2, 439, 331, 823, 567, 0, 1, 1, 95, MAX_BOUND,
  4, 262, 207, 557, 668, 0, 0, 0, 95, MAX_BOUND,
  2, 343, 377, 733, 487, 1, 1, 1, 95, MAX_BOUND,
  2, 286, 299, 340, 728, 1, 1, 0, 97, MAX_BOUND,
  2, 446, 382, 245, 512, 1, 1, 1, 97, MAX_BOUND,
  2, 370, 390, 440, 646, 1, 1, 0, 96, MAX_BOUND,
  2, 388, 497, 692, 509, 1, 1, 1, 97, MAX_BOUND,
]);

nodeCap = array2d(Nodes0, Res, [bestBounds[r] | r in Res] ++ [
  16, 83889, 846082, 19236, 21291, 1, 1, 1, 98, 0,
  16, 16929, 134474, 20923, 11453, 1, 0, 0, 99, 0,
  32, 79405, 353890, 17026, 14467, 1, 1, 0, 98, 0,
]);

cost = array2d(Nodes0, Res, [
  0, 0, 0, 0, 0, 0, 0, 0, 0, 0, % no node
  19, 5, 18, 0, 0, 0, 0, 0, 0, 0,
  20, 5, 20, 0, 0, 0, 0, 0, 0, 0,
  17, 5, 17, 0, 0, 0, 0, 0, 0, 0,
]);

cons = array2d(Nodes0, Res, [
  0, 0, 0, 0, 0, 0, 0, 0, 0, 0, % no node
  34, 48, 8, 0, 0, 0, 0, 0, 0, 0,
  2, 9, 20, 0, 0, 0, 0, 0, 0, 0,
  33, 28, 50, 0, 0, 0, 0, 0, 0, 0,
]);

costWeight = 0;
consWeight = 1;

costBudget = 43134;
consBudget = 43082;

depReq = array3d(Comps, Comps, Res, [
  if c1 = frontend2 /\ c2 = backend0 /\ r = N(avail) then
    97
  elseif c1 = frontend0 /\ c2 = backend0 /\ r = N(avail) then
    95
  elseif c1 = frontend2 /\ c2 = backend1 /\ r = N(avail) then
    95
  elseif c1 = frontend0 /\ c2 = backend1 /\ r = N(avail) then
    97
  elseif c1 = frontend1 /\ c2 = backend1 /\ r = N(avail) then
    96
  elseif c1 = frontend1 /\ c2 = backend0 /\ r = N(avail) then
    97
  else
    worstBounds[r]
  endif | c1 in Comps, c2 in Comps, r in Res]);

linkCap = array3d(Nodes0, Nodes0, Res, [
  if ni = 0 \/ nj = 0 then
    bestBounds[r]
  elseif ni = nj /\ r = N(avail) then
    nodeCap[ni,r]
  elseif {ni, nj} = {n1, n3} /\ r = N(avail) then
    99
  elseif {ni, nj} = {n1, n2} /\ r = N(avail) then
    99
  elseif {ni, nj} = {n2, n3} /\ r = N(avail) then
    98
  else
    worstBounds[r]
  endif | ni in Nodes0, nj in Nodes0, r in Res]);

imp = array2d(Comps, Flavs, [
  3, 6, 7,
  2, 8, 10,
  5, 6, 9,
  1, 4, 5,
  3, 6, 10,
  3, 4, 9,
  6, 7, 9,
]);

